param set_len = 18;
param target_sum = 5307200199;
param values := [1] 510571235 [2] 730052879 [3] 211395252 [4] 290142915 [5] 1008065325 [6] 176084872 [7] 476970919 [8] 834128190 [9] 263313916 [10] 644322508 [11] 82544658 [12] 919823794 [13] 739219436 [14] 840275660 [15] 608449371 [16] 530889956 [17] 490329467 [18] 405384166 ;
